NAME : instances/clustered-diverse-tsp/instance-23.tsp
COMMENT : No Comment
TYPE : TSP
DIMENSION: 50
EDGE_WEIGHT_TYPE : EUC_2D
NODE_COORD_SECTION
1 1872 710 
2 80 1002 
3 719 992 
4 1227 220 
5 285 128 
6 1990 692 
7 -1 924 
8 1858 726 
9 1944 662 
10 1873 720 
11 717 1034 
12 -25 1864 
13 234 159 
14 1857 675 
15 1907 1542 
16 1938 667 
17 333 133 
18 279 130 
19 1859 638 
20 1956 592 
21 1969 565 
22 1891 616 
23 1862 696 
24 1906 1471 
25 297 198 
26 2016 622 
27 823 1014 
28 211 81 
29 1997 677 
30 1926 670 
31 846 896 
32 87 961 
33 74 864 
34 1951 1374 
35 332 183 
36 255 163 
37 1913 554 
38 366 604 
39 222 174 
40 235 725 
41 115 1831 
42 81 977 
43 60 1788 
44 1853 1514 
45 1967 607 
46 779 1027 
47 -2 958 
48 1203 148 
49 317 613 
50 295 706 
EOF
